p cnf 129 171
-1 61 117 124 -126 -127 0 
-2 89 124 -126 -127 0 
-3 125 -124 -126 -127 0 
-4 -5 124 -126 -127 0 
-4 -6 124 -126 -127 0 
-7 124 -126 -127 0 
-8 9 25 32 124 -126 -127 0 
-9 8 25 32 124 -126 -127 0 
-4 -10 -11 124 -126 -127 0 
-5 -10 124 -126 -127 0 
-12 14 124 -126 -127 0 
-10 124 -126 -127 0 
-13 124 -126 -127 0 
-13 -11 124 -126 -127 0 
-14 12 124 -126 -127 0 
-6 -10 124 -126 -127 0 
-4 -10 124 -126 -127 0 
-15 20 125 -124 -126 -127 0 
-16 76 124 -126 -127 0 
-17 33 56 77 85 98 124 -126 -127 0 
-18 105 118 125 -124 -126 -127 0 
-19 41 73 74 87 92 124 -126 -127 0 
-20 15 124 -126 -127 0 
-2 89 -21 55 81 -11 124 -126 -127 0 
-11 126 -124 -127 0 
-22 30 34 63 67 -23 35 66 82 84 106 114 124 -126 -127 0 
-17 33 56 77 85 98 -11 124 -126 -127 0 
-24 27 -11 124 -126 -127 0 
-25 8 9 32 124 -126 -127 0 
-26 124 -126 -127 0 
-27 24 -11 124 -126 -127 0 
-28 -29 -30 22 34 63 67 -23 35 66 82 84 106 114 124 -126 -127 0 
-31 65 79 90 99 120 125 -124 -126 -127 0 
-28 -15 20 125 -124 -126 -127 0 
-32 8 9 25 124 -126 -127 0 
-33 17 56 77 85 98 124 -126 -127 0 
-34 22 30 63 67 -33 17 56 77 85 98 124 -126 -127 0 
-35 23 66 82 84 106 114 -36 124 -126 -127 0 
-4 -33 17 56 77 85 98 124 -126 -127 0 
-28 -37 124 -126 -127 0 
-38 -39 124 -126 -127 0 
-7 -33 17 56 77 85 98 124 -126 -127 0 
-39 124 -126 -127 0 
-37 124 -126 -127 0 
-38 -40 124 -126 -127 0 
-41 19 73 74 87 92 124 -126 -127 0 
-40 124 -126 -127 0 
-38 -41 19 73 74 87 92 124 -126 -127 0 
-42 46 48 52 78 86 88 95 97 124 -126 -127 0 
-28 -43 -44 125 -124 -126 -127 0 
-45 -46 42 48 52 78 86 88 95 97 125 -124 -126 -127 0 
-47 83 124 -126 -127 0 
-48 42 46 52 78 86 88 95 97 124 -126 -127 0 
-49 124 -126 -127 0 
-50 125 -124 -126 -127 0 
-41 19 73 74 87 92 -33 17 56 77 85 98 124 -126 -127 0 
-51 124 -126 -127 0 
-44 125 -124 -126 -127 0 
-52 42 46 48 78 86 88 95 97 -33 17 56 77 85 98 124 -126 -127 0 
-38 -53 -54 124 -126 -127 0 
-54 -31 65 79 90 99 120 125 -124 -126 -127 0 
-33 17 56 77 85 98 -55 21 81 -11 124 -126 -127 0 
-56 17 33 77 85 98 -57 124 -126 -127 0 
-29 -54 -22 30 34 63 67 -23 35 66 82 84 106 114 124 -126 -127 0 
-34 22 30 63 67 124 -126 -127 0 
-58 71 107 124 -126 -127 0 
-33 17 56 77 85 98 -11 124 -126 -127 0 
-59 -60 -61 1 117 -62 124 -126 -127 0 
-29 -61 1 117 -62 124 -126 -127 0 
-28 -22 30 34 63 67 -23 35 66 82 84 106 114 124 -126 -127 0 
-63 22 30 34 67 124 -126 -127 0 
-64 124 -126 -127 0 
-65 31 79 90 99 120 124 -126 -127 0 
-66 23 35 82 84 106 114 -36 124 -126 -127 0 
-36 126 -124 -127 0 
-67 22 30 34 63 125 -124 -126 -127 0 
-35 23 66 82 84 106 114 -33 17 56 77 85 98 124 -126 -127 0 
-68 115 124 -126 -127 0 
-24 27 124 -126 -127 0 
-69 102 103 124 -126 -127 0 
-70 124 -126 -127 0 
-36 124 -126 -127 0 
-45 -41 19 73 74 87 92 124 -126 -127 0 
-45 -39 124 -126 -127 0 
-5 -33 17 56 77 85 98 124 -126 -127 0 
-71 58 107 -37 124 -126 -127 0 
-56 17 33 77 85 98 124 -126 -127 0 
-54 -37 124 -126 -127 0 
-28 -40 124 -126 -127 0 
-6 -33 17 56 77 85 98 124 -126 -127 0 
-54 -41 19 73 74 87 92 124 -126 -127 0 
-72 124 -126 -127 0 
-28 -73 19 41 74 87 92 124 -126 -127 0 
-4 124 -126 -127 0 
-47 83 -33 17 56 77 85 98 124 -126 -127 0 
-46 42 48 52 78 86 88 95 97 125 -124 -126 -127 0 
-43 127 -124 -126 0 
-74 19 41 73 87 92 127 -124 -126 0 
-75 127 -124 -126 0 
-76 16 -77 17 33 56 85 98 126 -124 -127 0 
-78 42 46 48 52 86 88 95 97 126 -124 -127 0 
-79 31 65 90 99 120 126 -124 -127 0 
-80 125 -124 -126 -127 0 
-81 21 55 -5 124 -126 -127 0 
-82 23 35 66 84 106 114 -83 47 126 -124 -127 0 
-84 23 35 66 82 106 114 125 -124 -126 -127 0 
-53 124 -126 -127 0 
-50 124 -126 -127 0 
-85 17 33 56 77 98 125 -124 -126 -127 0 
-43 124 -126 -127 0 
-3 124 -126 -127 0 
-86 42 46 48 52 78 88 95 97 126 -124 -127 0 
-87 19 41 73 74 92 126 -124 -127 0 
-88 42 46 48 52 78 86 95 97 126 -124 -127 0 
-89 2 -17 33 56 77 85 98 126 -124 -127 0 
-28 -6 -42 46 48 52 78 86 88 95 97 124 -126 -127 0 
-54 -6 -19 41 73 74 87 92 124 -126 -127 0 
-54 -90 31 65 79 99 120 -52 42 46 48 78 86 88 95 97 124 -126 -127 0 
-85 17 33 56 77 98 -3 125 -124 -126 -127 0 
-91 -11 124 -126 -127 0 
-92 19 41 73 74 87 124 -126 -127 0 
-93 127 -124 -126 0 
-6 127 -124 -126 0 
-40 -33 17 56 77 85 98 124 -126 -127 0 
-94 96 127 -124 -126 0 
-95 42 46 48 52 78 86 88 97 -33 17 56 77 85 98 124 -126 -127 0 
-96 94 127 -124 -126 0 
-74 19 41 73 87 92 -97 42 46 48 52 78 86 88 95 127 -124 -126 0 
-98 17 33 56 77 85 124 -126 -127 0 
-99 31 65 79 90 120 124 -126 -127 0 
-73 19 41 74 87 92 -100 124 -126 -127 0 
-56 17 33 77 85 98 -21 55 81 -101 -11 124 -126 -127 0 
-27 24 124 -126 -127 0 
-2 89 -21 55 81 124 -126 -127 0 
-31 65 79 90 99 120 124 -126 -127 0 
-85 17 33 56 77 98 124 -126 -127 0 
-11 128 129 0 
-102 69 103 124 -126 -127 0 
-103 69 102 124 -126 -127 0 
-24 27 -10 -11 124 -126 -127 0 
-11 124 -126 -127 0 
-66 23 35 82 84 106 114 -10 124 -126 -127 0 
-104 -2 89 124 -126 -127 0 
-105 18 118 -89 2 126 -124 -127 0 
-106 23 35 66 82 84 114 -107 58 71 124 -126 -127 0 
-38 -108 124 -126 -127 0 
-109 -110 124 -126 -127 0 
-89 2 126 -124 -127 0 
-111 -112 124 -126 -127 0 
-53 -24 27 125 -124 -126 -127 0 
-66 23 35 82 84 106 114 -21 55 81 -10 -11 124 -126 -127 0 
-27 24 -10 -11 124 -126 -127 0 
-21 55 81 -11 126 -124 -127 0 
-113 -11 124 -126 -127 0 
-114 23 35 66 82 84 106 -21 55 81 -11 124 -126 -127 0 
-5 -11 124 -126 -127 0 
-102 69 103 124 -126 -127 0 
-115 68 124 -126 -127 0 
-116 124 -126 -127 0 
-117 1 61 124 -126 -127 0 
-14 12 124 -126 -127 0 
-4 -11 124 -126 -127 0 
-118 18 105 124 -126 -127 0 
-119 124 -126 -127 0 
-114 23 35 66 82 84 106 124 -126 -127 0 
-120 31 65 79 90 99 126 -124 -127 0 
-121 -122 126 -124 -127 0 
-123 -10 -11 124 -126 -127 0 
-12 14 124 -126 -127 0 
-36 -11 124 -126 -127 0 
-27 24 -10 124 -126 -127 0 
